instances/p2/p2_4_8-0.txt
{
	"num_strings": 4,
	"alphabet": "ACGT",
	"strings": [
		"C",
		"TGATTTAT",
		"C",
		"T"
	],
	"str_length":[1,8,1,1]
}